11 75 48 59 51 95 20 78 82 66 22 9 15 84 98 10 73 69 96 45 71 21 81 57 47 76 19 85 4 13 37 23 27 38 64 93 3 77 41 25 40 29 54 43 44 88 61 6 36 49 12 30 53 2 62 68 94 58 60 52 34 18 35 32 24 97 80 33 86 8 1 63 16 39 99 79 28 83 55 14 50 70 89 72 0 56 87 26 67 46 17 5 42 7 65 90 92 91 74 31 

